10 10 4

0 155 146 302 165 212 482 57 182 292 
367 0 345 206 91 324 177 450 313 372 
235 92 0 102 438 242 257 102 212 213 
471 441 135 0 415 303 232 216 174 150 
197 181 282 195 0 499 127 107 89 157 
234 245 176 312 186 0 426 365 331 167 
121 383 85 491 109 477 0 126 474 486 
64 396 159 164 93 290 153 0 445 495 
437 52 291 93 236 242 426 499 0 379 
351 119 209 224 397 298 260 388 358 0 

291.39 0 1
291.39 1 3
291.39 2 4
291.39 3 0
291.39 4 2
291.39 5 3
291.39 6 4
291.39 7 5
291.39 8 7
291.39 9 8

